Set parameter TokenServer to value "hpc-licenses.hpcc.usc.edu"
Set parameter TimeLimit to value 3600
Gurobi Optimizer version 9.5.1 build v9.5.1rc2 (linux64)
Thread count: 20 physical cores, 20 logical processors, using up to 20 threads
Optimize a model with 6007 rows, 4529 columns and 24534 nonzeros
Model fingerprint: 0x544179a5
Variable types: 4506 continuous, 23 integer (23 binary)
Coefficient statistics:
  Matrix range     [1e+00, 1e+00]
  Objective range  [2e-03, 1e+00]
  Bounds range     [1e+00, 1e+00]
  RHS range        [1e+00, 1e+02]
Presolve removed 1520 rows and 1515 columns
Presolve time: 0.09s
Presolved: 4487 rows, 3014 columns, 21975 nonzeros
Variable types: 2994 continuous, 20 integer (20 binary)
Found heuristic solution: objective 278.6548789

Root relaxation: objective 2.875260e+02, 3481 iterations, 0.12 seconds (0.22 work units)

    Nodes    |    Current Node    |     Objective Bounds      |     Work
 Expl Unexpl |  Obj  Depth IntInf | Incumbent    BestBd   Gap | It/Node Time

     0     0  287.52597    0    3  278.65488  287.52597  3.18%     -    0s
     0     0  287.47162    0    3  278.65488  287.47162  3.16%     -    0s
     0     0  287.41202    0    3  278.65488  287.41202  3.14%     -    0s
     0     0  287.31742    0    4  278.65488  287.31742  3.11%     -    0s
H    0     0                     286.6771435  287.31742  0.22%     -    0s
     0     0  287.31261    0    4  286.67714  287.31261  0.22%     -    0s
     0     0  287.27888    0    4  286.67714  287.27888  0.21%     -    0s
     0     0  287.27888    0    3  286.67714  287.27888  0.21%     -    1s
     0     0  287.05289    0    4  286.67714  287.05289  0.13%     -    1s
     0     0  286.92962    0    4  286.67714  286.92962  0.09%     -    1s
     0     0  286.81194    0    4  286.67714  286.81194  0.05%     -    2s
     0     0  286.81194    0    4  286.67714  286.81194  0.05%     -    2s
     0     0  286.81194    0    2  286.67714  286.81194  0.05%     -    2s
     0     0     cutoff    0       286.67714  286.67714  0.00%     -    2s

Explored 1 nodes (6793 simplex iterations) in 2.46 seconds (1.27 work units)
Thread count was 20 (of 20 available processors)

Solution count 3: 286.677 281.421 278.655 

Optimal solution found (tolerance 1.00e-04)
Best objective 2.866771435092e+02, best bound 2.866771435092e+02, gap 0.0000%



#########node  1
V1.8
#########node  2
0.0,1.0
#########node  3
1.0,0.0


Total Solving Time 2.8546481132507324
obj value 286.67714350915344
Policy Regret train (Sum) 3.4466623243982886
Best Treatment Found train (%) 75.4
treatment classification acc train (%) 37.8
Policy Regret test (Sum) 33.68478658989411
Best Treatment Found test (%) 82.75
treatment classification acc test (%) 40.58
